NAME : sim161.126912.tour
COMMENT : Length = 126912
COMMENT : Found by LKH [Keld Helsgaun] Sat Sep 15 07:47:31 2018
TYPE : TOUR
DIMENSION : 161
TOUR_SECTION
1
41
6
125
141
103
29
10
99
146
37
91
23
154
136
84
139
79
147
20
96
34
98
52
69
22
83
159
65
110
128
119
13
54
145
150
138
62
108
109
81
157
121
112
123
3
80
117
132
142
130
4
16
48
73
111
152
118
17
26
5
149
92
78
77
143
120
9
18
68
113
114
70
76
49
131
124
30
61
100
56
88
126
53
151
19
86
36
94
129
59
87
127
122
60
63
140
102
39
153
28
161
21
14
38
156
47
55
101
25
133
155
135
2
64
27
44
90
82
74
160
148
66
89
115
40
24
93
105
51
116
67
95
32
31
50
43
75
144
7
8
15
158
85
106
137
58
35
12
72
42
33
104
57
71
46
45
97
11
134
107
-1
EOF
